db/data/525123011812726357313972969193809609.z3.out
-------------------
2500.237202684
